% Strimko Weekly Set 067
n = 5;
streams = array2d(1..n, 1..n*2, [
                  1,1, 1,2, 1,3, 2,1, 3,1,
                  1,4, 2,2, 2,3, 2,4, 3,2,
                  1,5, 2,5, 3,5, 4,5, 5,5,
                  3,3, 4,2, 4,4, 5,1, 5,4,
                  3,4, 4,1, 5,2, 5,3, 4,3
                  ]);

num_placed = 5;
placed = array2d(1..num_placed, 1..3, [
                   1,3,4,
                   1,4,1,
                   3,3,2,
                   3,5,3,
                   5,4,5
                 ]);
